NAME : rnd9_50.tsp.tsp.optbc.tour
TYPE : TOUR
DIMENSION : 50
TOUR_SECTION
1
23
50
31
10
7
41
19
24
14
12
28
27
22
17
25
18
44
2
8
30
43
16
40
42
33
37
29
6
3
45
15
49
21
32
39
36
46
38
47
35
13
4
20
9
11
26
48
34
5
-1